p cnf 99 373
1 2 3 4 5 6 7 8 9 10 0
39 40 41 42 43 44 45 0
-1 -11 0
-1 -19 0
-1 -39 0
-1 -46 0
-1 -57 0
-1 -69 0
-1 -81 0
-1 -90 0
-11 -19 0
-11 -39 0
-11 -46 0
-11 -57 0
-11 -69 0
-11 -81 0
-11 -90 0
-19 -39 0
-19 -46 0
-19 -57 0
-19 -69 0
-19 -81 0
-19 -90 0
-39 -46 0
-39 -57 0
-39 -69 0
-39 -81 0
-39 -90 0
-46 -57 0
-46 -69 0
-46 -81 0
-46 -90 0
-57 -69 0
-57 -81 0
-57 -90 0
-69 -81 0
-69 -90 0
-81 -90 0
-2 -12 0
-2 -20 0
-2 -30 0
-2 -47 0
-2 -58 0
-2 -70 0
-2 -82 0
-2 -91 0
-12 -20 0
-12 -30 0
-12 -47 0
-12 -58 0
-12 -70 0
-12 -82 0
-12 -91 0
-20 -30 0
-20 -47 0
-20 -58 0
-20 -70 0
-20 -82 0
-20 -91 0
-30 -47 0
-30 -58 0
-30 -70 0
-30 -82 0
-30 -91 0
-47 -58 0
-47 -70 0
-47 -82 0
-47 -91 0
-58 -70 0
-58 -82 0
-58 -91 0
-70 -82 0
-70 -91 0
-82 -91 0
-3 -13 0
-3 -21 0
-3 -31 0
-3 -40 0
-3 -48 0
-3 -59 0
-3 -71 0
-3 -83 0
-3 -92 0
-13 -21 0
-13 -31 0
-13 -40 0
-13 -48 0
-13 -59 0
-13 -71 0
-13 -83 0
-13 -92 0
-21 -31 0
-21 -40 0
-21 -48 0
-21 -59 0
-21 -71 0
-21 -83 0
-21 -92 0
-31 -40 0
-31 -48 0
-31 -59 0
-31 -71 0
-31 -83 0
-31 -92 0
-40 -48 0
-40 -59 0
-40 -71 0
-40 -83 0
-40 -92 0
-48 -59 0
-48 -71 0
-48 -83 0
-48 -92 0
-59 -71 0
-59 -83 0
-59 -92 0
-71 -83 0
-71 -92 0
-83 -92 0
-4 -22 0
-4 -32 0
-4 -41 0
-4 -49 0
-4 -60 0
-4 -72 0
-4 -84 0
-22 -32 0
-22 -41 0
-22 -49 0
-22 -60 0
-22 -72 0
-22 -84 0
-32 -41 0
-32 -49 0
-32 -60 0
-32 -72 0
-32 -84 0
-41 -49 0
-41 -60 0
-41 -72 0
-41 -84 0
-49 -60 0
-49 -72 0
-49 -84 0
-60 -72 0
-60 -84 0
-72 -84 0
-5 -23 0
-5 -42 0
-5 -61 0
-5 -73 0
-5 -93 0
-23 -42 0
-23 -61 0
-23 -73 0
-23 -93 0
-42 -61 0
-42 -73 0
-42 -93 0
-61 -73 0
-61 -93 0
-73 -93 0
-14 -24 0
-14 -33 0
-14 -50 0
-14 -62 0
-14 -74 0
-14 -94 0
-24 -33 0
-24 -50 0
-24 -62 0
-24 -74 0
-24 -94 0
-33 -50 0
-33 -62 0
-33 -74 0
-33 -94 0
-50 -62 0
-50 -74 0
-50 -94 0
-62 -74 0
-62 -94 0
-74 -94 0
-6 -15 0
-6 -25 0
-6 -34 0
-6 -43 0
-6 -51 0
-6 -63 0
-6 -75 0
-6 -85 0
-6 -95 0
-15 -25 0
-15 -34 0
-15 -43 0
-15 -51 0
-15 -63 0
-15 -75 0
-15 -85 0
-15 -95 0
-25 -34 0
-25 -43 0
-25 -51 0
-25 -63 0
-25 -75 0
-25 -85 0
-25 -95 0
-34 -43 0
-34 -51 0
-34 -63 0
-34 -75 0
-34 -85 0
-34 -95 0
-43 -51 0
-43 -63 0
-43 -75 0
-43 -85 0
-43 -95 0
-51 -63 0
-51 -75 0
-51 -85 0
-51 -95 0
-63 -75 0
-63 -85 0
-63 -95 0
-75 -85 0
-75 -95 0
-85 -95 0
-7 -26 0
-7 -35 0
-7 -52 0
-7 -64 0
-7 -76 0
-7 -86 0
-26 -35 0
-26 -52 0
-26 -64 0
-26 -76 0
-26 -86 0
-35 -52 0
-35 -64 0
-35 -76 0
-35 -86 0
-52 -64 0
-52 -76 0
-52 -86 0
-64 -76 0
-64 -86 0
-76 -86 0
-8 -16 0
-8 -53 0
-8 -65 0
-8 -77 0
-8 -96 0
-16 -53 0
-16 -65 0
-16 -77 0
-16 -96 0
-53 -65 0
-53 -77 0
-53 -96 0
-65 -77 0
-65 -96 0
-77 -96 0
-17 -27 0
-17 -36 0
-17 -44 0
-17 -54 0
-17 -66 0
-17 -78 0
-17 -87 0
-17 -97 0
-27 -36 0
-27 -44 0
-27 -54 0
-27 -66 0
-27 -78 0
-27 -87 0
-27 -97 0
-36 -44 0
-36 -54 0
-36 -66 0
-36 -78 0
-36 -87 0
-36 -97 0
-44 -54 0
-44 -66 0
-44 -78 0
-44 -87 0
-44 -97 0
-54 -66 0
-54 -78 0
-54 -87 0
-54 -97 0
-66 -78 0
-66 -87 0
-66 -97 0
-78 -87 0
-78 -97 0
-87 -97 0
-9 -28 0
-9 -37 0
-9 -55 0
-9 -67 0
-9 -79 0
-9 -88 0
-9 -98 0
-28 -37 0
-28 -55 0
-28 -67 0
-28 -79 0
-28 -88 0
-28 -98 0
-37 -55 0
-37 -67 0
-37 -79 0
-37 -88 0
-37 -98 0
-55 -67 0
-55 -79 0
-55 -88 0
-55 -98 0
-67 -79 0
-67 -88 0
-67 -98 0
-79 -88 0
-79 -98 0
-88 -98 0
-10 -18 0
-10 -29 0
-10 -38 0
-10 -45 0
-10 -56 0
-10 -68 0
-10 -80 0
-10 -89 0
-10 -99 0
-18 -29 0
-18 -38 0
-18 -45 0
-18 -56 0
-18 -68 0
-18 -80 0
-18 -89 0
-18 -99 0
-29 -38 0
-29 -45 0
-29 -56 0
-29 -68 0
-29 -80 0
-29 -89 0
-29 -99 0
-38 -45 0
-38 -56 0
-38 -68 0
-38 -80 0
-38 -89 0
-38 -99 0
-45 -56 0
-45 -68 0
-45 -80 0
-45 -89 0
-45 -99 0
-56 -68 0
-56 -80 0
-56 -89 0
-56 -99 0
-68 -80 0
-68 -89 0
-68 -99 0
-80 -89 0
-80 -99 0
-89 -99 0
